56202
34, 53, 23, 29, 46, 36, 39, 15, 16, 10, 22, 21, 17, 48, 19, 44, 8, 38, 32, 41, 13, 37, 7, 20, 50, 24, 35, 5, 51, 40, 43, 3, 6, 28, 49, 55, 26, 54, 47, 30, 4, 12, 18, 42, 33, 1, 27, 25, 31, 11, 45, 52, 2, 14, 9
